NAME : pr152.122307.tour
COMMENT : Length = 122307
COMMENT : Found by LKH [Keld Helsgaun] Mon Nov 19 09:16:20 2018
TYPE : TOUR
DIMENSION : 161
TOUR_SECTION
1
16
153
36
154
34
155
2
156
37
157
33
32
31
30
29
38
28
27
26
25
24
39
23
22
20
21
19
40
18
17
9
8
10
7
11
6
12
5
13
4
14
3
15
159
44
55
56
68
67
66
65
57
43
42
58
59
64
63
62
61
60
41
84
85
108
109
110
86
107
106
105
83
87
104
112
103
102
101
89
100
113
114
80
45
158
81
88
82
111
117
140
139
141
142
143
138
137
118
119
136
135
144
145
146
134
133
120
121
132
131
147
148
149
130
129
122
123
128
127
151
150
152
126
125
124
160
47
51
73
75
48
49
50
76
74
77
93
94
95
92
78
116
115
96
91
79
97
98
99
90
54
69
70
71
72
53
52
46
161
35
-1
EOF
